CNF/complete4G1vecol5.cnf
p cnf 100 300
1 2 3 4 5 0
-1 6 0
-2 7 0
-3 8 0
-4 9 0
-5 10 0
-6 -2 0
-7 -3 0
-8 -4 0
-9 -5 0
-6 7 0
-7 8 0
-8 9 0
-9 10 0
10 0
11 12 13 14 15 0
-11 16 0
-12 17 0
-13 18 0
-14 19 0
-15 20 0
-16 -12 0
-17 -13 0
-18 -14 0
-19 -15 0
-16 17 0
-17 18 0
-18 19 0
-19 20 0
20 0
21 22 23 24 25 0
-21 26 0
-22 27 0
-23 28 0
-24 29 0
-25 30 0
-26 -22 0
-27 -23 0
-28 -24 0
-29 -25 0
-26 27 0
-27 28 0
-28 29 0
-29 30 0
30 0
31 32 33 34 35 0
-31 36 0
-32 37 0
-33 38 0
-34 39 0
-35 40 0
-36 -32 0
-37 -33 0
-38 -34 0
-39 -35 0
-36 37 0
-37 38 0
-38 39 0
-39 40 0
40 0
41 42 43 44 45 0
-41 46 0
-42 47 0
-43 48 0
-44 49 0
-45 50 0
-46 -42 0
-47 -43 0
-48 -44 0
-49 -45 0
-46 47 0
-47 48 0
-48 49 0
-49 50 0
50 0
51 52 53 54 55 0
-51 56 0
-52 57 0
-53 58 0
-54 59 0
-55 60 0
-56 -52 0
-57 -53 0
-58 -54 0
-59 -55 0
-56 57 0
-57 58 0
-58 59 0
-59 60 0
60 0
61 62 63 64 65 0
-61 66 0
-62 67 0
-63 68 0
-64 69 0
-65 70 0
-66 -62 0
-67 -63 0
-68 -64 0
-69 -65 0
-66 67 0
-67 68 0
-68 69 0
-69 70 0
70 0
71 72 73 74 75 0
-71 76 0
-72 77 0
-73 78 0
-74 79 0
-75 80 0
-76 -72 0
-77 -73 0
-78 -74 0
-79 -75 0
-76 77 0
-77 78 0
-78 79 0
-79 80 0
80 0
81 82 83 84 85 0
-81 86 0
-82 87 0
-83 88 0
-84 89 0
-85 90 0
-86 -82 0
-87 -83 0
-88 -84 0
-89 -85 0
-86 87 0
-87 88 0
-88 89 0
-89 90 0
90 0
91 92 93 94 95 0
-91 96 0
-92 97 0
-93 98 0
-94 99 0
-95 100 0
-96 -92 0
-97 -93 0
-98 -94 0
-99 -95 0
-96 97 0
-97 98 0
-98 99 0
-99 100 0
100 0
-1 -11 0
-2 -12 0
-3 -13 0
-4 -14 0
-5 -15 0
-1 -21 0
-2 -22 0
-3 -23 0
-4 -24 0
-5 -25 0
-1 -31 0
-2 -32 0
-3 -33 0
-4 -34 0
-5 -35 0
-11 -21 0
-12 -22 0
-13 -23 0
-14 -24 0
-15 -25 0
-11 -31 0
-12 -32 0
-13 -33 0
-14 -34 0
-15 -35 0
-21 -31 0
-22 -32 0
-23 -33 0
-24 -34 0
-25 -35 0
-1 -41 0
-11 -41 0
-2 -42 0
-12 -42 0
-3 -43 0
-13 -43 0
-4 -44 0
-14 -44 0
-5 -45 0
-15 -45 0
-1 -51 0
-21 -51 0
-2 -52 0
-22 -52 0
-3 -53 0
-23 -53 0
-4 -54 0
-24 -54 0
-5 -55 0
-25 -55 0
-1 -61 0
-31 -61 0
-2 -62 0
-32 -62 0
-3 -63 0
-33 -63 0
-4 -64 0
-34 -64 0
-5 -65 0
-35 -65 0
-11 -71 0
-21 -71 0
-12 -72 0
-22 -72 0
-13 -73 0
-23 -73 0
-14 -74 0
-24 -74 0
-15 -75 0
-25 -75 0
-11 -81 0
-31 -81 0
-12 -82 0
-32 -82 0
-13 -83 0
-33 -83 0
-14 -84 0
-34 -84 0
-15 -85 0
-35 -85 0
-21 -91 0
-31 -91 0
-22 -92 0
-32 -92 0
-23 -93 0
-33 -93 0
-24 -94 0
-34 -94 0
-25 -95 0
-35 -95 0
-41 -51 0
-42 -52 0
-43 -53 0
-44 -54 0
-45 -55 0
-41 -61 0
-42 -62 0
-43 -63 0
-44 -64 0
-45 -65 0
-41 -71 0
-42 -72 0
-43 -73 0
-44 -74 0
-45 -75 0
-41 -81 0
-42 -82 0
-43 -83 0
-44 -84 0
-45 -85 0
-51 -61 0
-52 -62 0
-53 -63 0
-54 -64 0
-55 -65 0
-51 -71 0
-52 -72 0
-53 -73 0
-54 -74 0
-55 -75 0
-51 -91 0
-52 -92 0
-53 -93 0
-54 -94 0
-55 -95 0
-61 -81 0
-62 -82 0
-63 -83 0
-64 -84 0
-65 -85 0
-61 -91 0
-62 -92 0
-63 -93 0
-64 -94 0
-65 -95 0
-71 -81 0
-72 -82 0
-73 -83 0
-74 -84 0
-75 -85 0
-71 -91 0
-72 -92 0
-73 -93 0
-74 -94 0
-75 -95 0
-81 -91 0
-82 -92 0
-83 -93 0
-84 -94 0
-85 -95 0
