CNF/complete4G1vecol5.txt
Vertex 0: Color 4
Vertex 1: Color 5
Vertex 2: Color 2
Vertex 3: Color 3
Edge (0, 1): Color 1
Edge (0, 2): Color 3
Edge (0, 3): Color 5
Edge (1, 2): Color 4
Edge (1, 3): Color 2
Edge (2, 3): Color 1
